ampl_outputs/A-n14-k3-m1-b3_v2_ampl_.txt.out
Gurobi 12.0.1:   lim:time = 28800
  mip:bestbound = 1
Set parameter LogToConsole to value 1
  tech:outlev = 1
Set parameter InfUnbdInfo to value 1
Gurobi Optimizer version 12.0.1 build v12.0.1rc0 (win64 - Windows 11.0 (22631.2))

CPU model: Intel(R) Core(TM) i7-10700 CPU @ 2.90GHz, instruction set [SSE2|AVX|AVX2]
Thread count: 8 physical cores, 16 logical processors, using up to 16 threads

Non-default parameters:
TimeLimit  28800
InfUnbdInfo  1

Optimize a model with 386 rows, 906 columns and 5101 nonzeros
Model fingerprint: 0x2b4a9ced
Model has 3 quadratic objective terms
Model has 10 quadratic constraints
Model has 135 simple general constraints
  135 AND
Variable types: 19 continuous, 887 integer (0 binary)
Coefficient statistics:
  Matrix range     [1e+00, 1e+05]
  QMatrix range    [6e+00, 2e+01]
  QLMatrix range   [1e+00, 2e+01]
  Objective range  [9e+00, 3e+02]
  QObjective range [6e+00, 2e+01]
  Bounds range     [1e+00, 1e+00]
  RHS range        [1e+00, 1e+05]
  QRHS range       [5e+01, 1e+02]
Presolve added 465 rows and 0 columns
Presolve removed 0 rows and 27 columns
Presolve time: 0.02s
Presolved: 1307 rows, 1287 columns, 7395 nonzeros
Variable types: 15 continuous, 1272 integer (1272 binary)

Root relaxation: objective 9.100328e+02, 114 iterations, 0.01 seconds (0.00 work units)

    Nodes    |    Current Node    |     Objective Bounds      |     Work
 Expl Unexpl |  Obj  Depth IntInf | Incumbent    BestBd   Gap | It/Node Time

     0     0  910.03280    0   29          -  910.03280      -     -    0s
H    0     0                    2748.6400000  910.03280  66.9%     -    0s
H    0     0                    2732.6400000  910.03280  66.7%     -    0s
H    0     0                    2219.1900000  948.83924  57.2%     -    0s
H    0     0                    2198.4000000  948.83924  56.8%     -    0s
     0     0 1034.08000    0   32 2198.40000 1034.08000  53.0%     -    0s
H    0     0                    2143.8000000 1034.08000  51.8%     -    0s
     0     0 1051.54636    0   35 2143.80000 1051.54636  50.9%     -    0s
H    0     0                    2117.0100000 1059.88000  49.9%     -    0s
     0     0 1059.88000    0   34 2117.01000 1059.88000  49.9%     -    0s
     0     0 1066.09500    0   35 2117.01000 1066.09500  49.6%     -    0s
     0     0 1074.52465    0   29 2117.01000 1074.52465  49.2%     -    0s
     0     0 1078.33000    0   23 2117.01000 1078.33000  49.1%     -    0s
     0     0 1078.33000    0   23 2117.01000 1078.33000  49.1%     -    0s
H    0     0                    2104.6500000 1078.33000  48.8%     -    0s
     0     0 1078.33000    0   23 2104.65000 1078.33000  48.8%     -    0s
H    0     0                    1610.6600000 1078.33000  33.1%     -    0s
     0     0 1078.33000    0   23 1610.66000 1078.33000  33.1%     -    0s
     0     0 1078.33000    0   22 1610.66000 1078.33000  33.1%     -    0s
     0     0 1078.33000    0   22 1610.66000 1078.33000  33.1%     -    0s
     0     0 1078.33000    0   22 1610.66000 1078.33000  33.1%     -    0s
     0     2 1078.33000    0   22 1610.66000 1078.33000  33.1%     -    0s
H   26    62                    1605.7400000 1078.33725  32.8%  24.0    0s
H   42    62                    1506.2300000 1078.33725  28.4%  17.2    0s
*   43    62               5    1106.6600000 1078.33725  2.56%  17.6    0s

Cutting planes:
  Learned: 2
  Gomory: 1
  Cover: 4
  Implied bound: 19
  MIR: 13
  Inf proof: 2
  Zero half: 2
  RLT: 17
  Relax-and-lift: 1

Explored 191 nodes (2652 simplex iterations) in 0.78 seconds (0.26 work units)
Thread count was 16 (of 16 available processors)

Solution count 10: 1106.66 1506.23 1605.74 ... 2732.64

Optimal solution found (tolerance 1.00e-04)
Best objective 1.106660000000e+03, best bound 1.106660000000e+03, gap 0.0000%

AMPL MP initial flat model has 771 variables (0 integer, 752 binary);
Objectives: 1 quadratic; 
Constraints:  386 linear; 10 quadratic;
Logical expressions:  135 and;

AMPL MP final model has 906 variables (0 integer, 887 binary);
Objectives: 1 quadratic; 
Constraints:  386 linear; 10 quadratic;
Logical expressions:  135 and;


-----RESULTS INFO-----
running_time:  0.938
TC.best_bound:  1106.66
TC:  1106.6599999999999
MIP Gap (%):  2.054593781678493e-14
=== Vehicle Routes ===
Vehicle 1: 0 → 15
Vehicle 1: 15 → 0
Vehicle 2: 0 → 6
Vehicle 2: 1 → 2
Vehicle 2: 2 → 3
Vehicle 2: 3 → 4
Vehicle 2: 4 → 5
Vehicle 2: 5 → 0
Vehicle 2: 6 → 17
Vehicle 2: 17 → 1
Vehicle 3: 0 → 18
Vehicle 3: 18 → 0

=== Full Vehicle Routes ===
Vehicle 1: 0 → 15 → 0
Vehicle 2: 0 → 6 → 17 → 1 → 2 → 3 → 4 → 5 → 0
Vehicle 3: 0 → 18 → 0
Arc used by MRT line: y variables:
MRT used: 15 → 16
Customer assigment to PL: u variables:
7 15
8 15
9 17
10 16
11 15
12 17
13 18
14 16
Node is served by regular vehicle: g variables:
1
2
3
4
5
6
17
18
15
Customer assigment to Home delivery: gm variables:
1
2
3
4
5
6
Customer's demand delivered to PL: l variables:
7
8
9
10
11
12
13
14
